
******************************************************************************
This program contains Ipopt, a library for large-scale nonlinear optimization.
 Ipopt is released as open source code under the Eclipse Public License (EPL).
         For more information visit http://projects.coin-or.org/Ipopt
******************************************************************************

This is Ipopt version 3.12.6, running with linear solver ma57.

Number of nonzeros in equality constraint Jacobian...:        0
Number of nonzeros in inequality constraint Jacobian.:        0
Number of nonzeros in Lagrangian Hessian.............:     8999

Total number of variables............................:     3000
                     variables with only lower bounds:        0
                variables with lower and upper bounds:        0
                     variables with only upper bounds:        0
Total number of equality constraints.................:        0
Total number of inequality constraints...............:        0
        inequality constraints with only lower bounds:        0
   inequality constraints with lower and upper bounds:        0
        inequality constraints with only upper bounds:        0

iter    objective    inf_pr   inf_du lg(mu)  ||d||  lg(rg) alpha_du alpha_pr  ls
   0  3.9003273e+04 0.00e+00 3.78e+01  -1.0 0.00e+00    -  0.00e+00 0.00e+00   0
   1  2.3385552e+04 0.00e+00 2.39e+01  -1.0 2.11e-01   2.0 1.00e+00 1.00e+00f  1
   2  1.1287504e+04 0.00e+00 1.26e+01  -1.0 2.83e-01   1.5 1.00e+00 1.00e+00f  1
   3  4.7624016e+03 0.00e+00 6.00e+00  -1.0 3.43e-01   1.0 1.00e+00 1.00e+00f  1
   4  1.8708754e+03 0.00e+00 2.71e+00  -1.0 4.07e-01   0.6 1.00e+00 1.00e+00f  1
   5  6.6928062e+02 0.00e+00 1.19e+00  -1.0 9.03e-01   0.1 1.00e+00 1.00e+00f  1
   6  3.4739844e+02 0.00e+00 7.05e-01  -1.0 1.93e-01   0.5 1.00e+00 1.00e+00f  1
   7  1.2475911e+02 0.00e+00 3.40e-01  -1.7 2.44e-01   0.0 1.00e+00 1.00e+00f  1
   8  3.1466211e+01 0.00e+00 1.41e-01  -1.7 3.19e-01  -0.4 1.00e+00 1.00e+00f  1
   9  1.6687354e+01 0.00e+00 1.09e-01  -2.5 1.08e-01  -0.0 1.00e+00 1.00e+00f  1
iter    objective    inf_pr   inf_du lg(mu)  ||d||  lg(rg) alpha_du alpha_pr  ls
  10  6.4310709e+00 0.00e+00 6.30e-02  -2.5 1.84e-01  -0.5 1.00e+00 1.00e+00f  1
  11  2.3585599e+00 0.00e+00 2.11e-02  -2.5 1.83e-01  -1.0 1.00e+00 1.00e+00f  1
  12  1.7457222e+00 0.00e+00 1.36e-02  -3.8 4.53e-02  -0.5 1.00e+00 1.00e+00f  1
  13  1.2729393e+00 0.00e+00 7.38e-03  -3.8 6.67e-02  -1.0 1.00e+00 1.00e+00f  1
  14  1.0707831e+00 0.00e+00 3.25e-03  -3.8 7.69e-02  -1.5 1.00e+00 1.00e+00f  1
  15  1.0156027e+00 0.00e+00 1.26e-03  -3.8 9.72e-02  -2.0 1.00e+00 1.00e+00f  1
  16  1.0040563e+00 0.00e+00 4.54e-04  -5.7 7.26e-02  -2.4 1.00e+00 1.00e+00f  1
  17  1.0014154e+00 0.00e+00 1.80e-04  -5.7 1.51e-01  -2.9 1.00e+00 1.00e+00f  1
  18  1.0000158e+00 0.00e+00 5.12e-05  -5.7 2.26e+00    -  1.00e+00 1.00e+00f  1
  19  1.0000000e+00 0.00e+00 3.89e-06  -5.7 2.88e-02    -  1.00e+00 1.00e+00f  1
iter    objective    inf_pr   inf_du lg(mu)  ||d||  lg(rg) alpha_du alpha_pr  ls
  20  1.0000000e+00 0.00e+00 3.00e-09  -8.6 2.15e-03    -  1.00e+00 1.00e+00f  1

Number of Iterations....: 20

                                   (scaled)                 (unscaled)
Objective...............:   1.0000000000000127e+00    1.0000000000000127e+00
Dual infeasibility......:   2.9992844613171933e-09    2.9992844613171933e-09
Constraint violation....:   0.0000000000000000e+00    0.0000000000000000e+00
Complementarity.........:   0.0000000000000000e+00    0.0000000000000000e+00
Overall NLP error.......:   2.9992844613171933e-09    2.9992844613171933e-09


Number of objective function evaluations             = 21
Number of objective gradient evaluations             = 21
Number of equality constraint evaluations            = 0
Number of inequality constraint evaluations          = 0
Number of equality constraint Jacobian evaluations   = 0
Number of inequality constraint Jacobian evaluations = 0
Number of Lagrangian Hessian evaluations             = 20
Total CPU secs in IPOPT (w/o function evaluations)   =      0.057
Total CPU secs in NLP function evaluations           =      0.050

EXIT: Optimal Solution Found.
Note: The following floating-point exceptions are signalling: IEEE_UNDERFLOW_FLAG IEEE_DENORMAL

 ** SUBROUTINE CUTEST_csetup: Warning. The problem has no general constraints. 
 ** Other tools may be preferable ** 

************************ CUTEst statistics ************************


 Package used            :  IPOPT
 Problem                 :  DIXMAANJ  
 # variables             =            3000
 # constraints           =               0
 # objective functions   =        0.4300000E+02
 # objective gradients   =        0.2200000E+02
 # objective Hessians    =        0.2100000E+02
 # Hessian-vector prdct  =        0.0000000E+00
 # constraints functions =        0.0000000E+00
 # constraints gradients =        0.0000000E+00
 # constraints Hessians  =        0.0000000E+00
 Exit code               =               0
 Final f                 =   0.1000000E+01
 Set up time             =            0.05 seconds
 Solve time              =            0.29 seconds


******************************************************************

System Time =       0.0759999976 s.
